************************************************************************
file with basedata            : md362_.bas
initial value random generator: 807
************************************************************************
projects                      :  1
jobs (incl. supersource/sink ):  22
horizon                       :  170
RESOURCES
  - renewable                 :  2   R
  - nonrenewable              :  2   N
  - doubly constrained        :  0   D
************************************************************************
PROJECT INFORMATION:
pronr.  #jobs rel.date duedate tardcost  MPM-Time
    1     20      0       16       15       16
************************************************************************
PRECEDENCE RELATIONS:
jobnr.    #modes  #successors   successors
   1        1          3           2   3   4
   2        3          3           6   7  11
   3        3          3           5   8   9
   4        3          3          10  14  21
   5        3          2          10  12
   6        3          3          12  13  16
   7        3          3          15  17  18
   8        3          1          13
   9        3          1          12
  10        3          2          15  16
  11        3          1          17
  12        3          3          15  18  21
  13        3          2          19  21
  14        3          1          16
  15        3          1          19
  16        3          3          17  18  19
  17        3          1          20
  18        3          1          20
  19        3          1          22
  20        3          1          22
  21        3          1          22
  22        1          0        
************************************************************************
REQUESTS/DURATIONS:
jobnr. mode duration  R 1  R 2  N 1  N 2
------------------------------------------------------------------------
  1      1     0       0    0    0    0
  2      1     2       0    7    6    8
         2     3       6    0    5    7
         3     9       6    0    4    7
  3      1     2       5    0    8    6
         2     6       0    4    6    6
         3     9       0    3    6    6
  4      1     3       0    4    8   10
         2     5       0    3    7    9
         3     7       6    0    6    9
  5      1     3       7    0    8    7
         2    10       5    0    4    4
         3    10       0    4    6    6
  6      1     3       0    8    5    4
         2     9       0    7    3    4
         3     9       1    0    3    3
  7      1     8       4    0   10    9
         2     8       0   10   10   10
         3     9       0   10   10    6
  8      1     1       5    0   10    6
         2     4       0   10    8    6
         3     8       0    7    4    5
  9      1     5      10    0    8    8
         2     6       9    0    6    8
         3     9       9    0    5    8
 10      1     4       6    0    9    7
         2     9       2    0    8    5
         3    10       0    7    8    4
 11      1     7       0    5    8    4
         2     8       8    0    6    3
         3    10       0    2    4    3
 12      1     1       0    7    2    7
         2     2       6    0    2    6
         3    10       0    7    2    4
 13      1     6       0   10    8   10
         2     9       7    0    6    4
         3     9       0    7    4    4
 14      1     4       9    0    7    3
         2     5       0    2    7    2
         3     7       6    0    6    2
 15      1     1       0    9    3    5
         2     2       2    0    3    3
         3     9       0    2    3    3
 16      1     3       3    0    6    9
         2     5       1    0    5    4
         3     7       0    7    5    4
 17      1     3       0    6    5   10
         2     6       0    6    4    8
         3     9       0    4    2    6
 18      1     1       5    0   10    8
         2     5       5    0    9    7
         3     7       0    2    8    7
 19      1     4       0    4    9    4
         2     5       6    0    7    3
         3     9       5    0    5    3
 20      1     1       0    9    5    9
         2     2       9    0    3    5
         3     6       0    8    1    4
 21      1     1       6    0    8    9
         2     6       0    7    6    8
         3     7       0    1    6    7
 22      1     0       0    0    0    0
************************************************************************
RESOURCEAVAILABILITIES:
  R 1  R 2  N 1  N 2
   23   18  120  122
************************************************************************
MAXIMAL LAGS:
from  to  type  delay
    1   12   ES      0
    1    2   ES      0
    2   12   ES      0
    1    3   ES      0
    3   12   ES      0
    1    4   ES      0
    4   12   ES      0
    1    5   ES      0
    5   12   ES      0
    1    6   ES      0
    6   12   ES      0
    1    7   ES      0
    7   12   ES      0
    1    8   ES      0
    8   12   ES      0
    1    9   ES      0
    9   12   ES      0
    1   10   ES      0
   10   12   ES      0
    1   11   ES      0
   11   12   ES      0
    1   12   ES      0
    2    6   SS      5
    2    6   SE     10
    2    6   ES     -1
    2    6   EE     -5
    2    7   SS      9
    2    7   SE    -12
    2    7   ES     -4
    2    7   EE     -1
    2   11   SS     -1
    2   11   SE     -2
    2   11   ES     -2
    2   11   EE      6
    3    5   SS     -2
    3    5   SE    -11
    3    5   ES     -8
    3    5   EE      1
    3    8   SS     -6
    3    8   SE     10
    3    8   ES     -2
    3    8   EE      1
    3    9   SS    -12
    3    9   SE      3
    3    9   ES      3
    3    9   EE      3
    4   10   SS     12
    4   10   SE      5
    4   10   ES      7
    4   10   EE      9
    4   14   SS     -3
    4   14   SE     -6
    4   14   ES     -5
    4   14   EE      8
    4   21   SS     -8
    4   21   SE      3
    4   21   ES      1
    4   21   EE     -6
    5   10   SS      6
    5   10   SE     11
    5   10   ES      7
    5   10   EE    -11
    6   13   SS     -4
    6   13   SE      9
    6   13   ES      1
    6   13   EE    -11
    6   16   SS    -12
    6   16   SE      4
    6   16   ES     -7
    6   16   EE     10
    7   15   SS     11
    7   15   SE     -5
   15    7   SE      0
    7   15   ES      0
    7   15   EE      6
    7   17   SS      0
    7   17   SE     11
    7   17   ES      9
    7   17   EE     -8
    7   18   SS      1
    7   18   SE      6
    7   18   ES    -12
    7   18   EE     -7
    8   13   SS      9
    8   13   SE     -7
    8   13   ES     -8
    8   13   EE    -11
   10   15   SS      6
   10   15   SE      2
   10   15   ES     -1
   10   15   EE     -2
   10   16   SS      9
   10   16   SE    -12
   10   16   ES      0
   10   16   EE     -9
   11   17   SS      2
   11   17   SE     12
   11   17   ES      7
   11   17   EE    -11
   12   15   SS      1
   12   15   SE      8
   12   15   ES      2
   12   15   EE    -12
   12   18   SS     11
   12   18   SE    -10
   12   18   ES     -2
   12   18   EE      9
   12   21   SS     -9
   12   21   SE     -7
   12   21   ES    -11
   12   21   EE    -11
   13   19   SS     -6
   13   19   SE      6
   13   19   ES     -6
   13   19   EE     -4
   13   21   SS     -3
   13   21   SE      7
   13   21   ES    -11
   13   21   EE      2
   14   16   SS      1
   14   16   SE      7
   14   16   ES      3
   14   16   EE     -7
   15   19   SS     -9
   15   19   SE      0
   15   19   ES     -7
   15   19   EE     11
   16   17   SS    -10
   16   17   SE      5
   16   17   ES      8
   16   17   EE     -6
   16   18   SS      9
   16   18   SE     -5
   16   18   ES     12
   16   18   EE      9
   16   19   SS     -5
   16   19   SE      6
   16   19   ES     11
   16   19   EE      8
   17   20   SS    -10
   17   20   SE     11
   17   20   ES      7
   17   20   EE     -7
   18   20   SS      6
   18   20   SE      0
   18   20   ES      8
   18   20   EE      7
   19   22   SS     -8
   19   22   SE     -9
   19   22   ES    -12
   19   22   EE     -2
   20   22   SS     -5
   20   22   SE    -12
   20   22   ES      3
   20   22   EE    -10
   21   22   SS     -7
   21   22   SE     -7
   21   22   ES      1
   21   22   EE    -11
************************************************************************
